# Solution for model LP: ACOPF
# Objective value = 1.0485526056668655e+03
obj_vars[1,0] 0
obj_vars[1,1] 2.3320515254557055e+00
obj_vars[1,2] 0
obj_vars[1,3] 0
obj_vars[5,0] 0
obj_vars[5,1] 0
obj_vars[5,2] 1.1573199548458331e+00
obj_vars[5,3] 0
p_n[1] 2.3320515254557055e+00
p_n[2] 1.3422372914517755e-08
p_n[3] 2.6569991373737167e-08
p_n[4] 1.3087306682812994e-08
p_n[5] 1.1573199548458331e+00
q_n[1] 1.3732800025776160e-01
q_n[2] 0
q_n[3] 0
q_n[4] 8.92370988214708e-09
q_n[5] -2.9987054195083962e-01
v_n_r[1] 9.6181433859284526e-01
v_n_r[2] 0.921231992581113
v_n_r[3] 9.0535441754280532e-01
v_n_r[4] 9.5802601530642684e-01
v_n_r[5] 9.5271270608706016e-01
v_n_j[1] 3.3314934333655516e-01
v_n_j[2] 2.4883905253772487e-01
v_n_j[3] 2.8799232765799665e-01
v_n_j[4] 4.4722581705381448e-01
v_n_j[5] 0.542233509322114
v_n_sq[1] 1.0360753068883704e+00
v_n_sq[2] 9.1058925822284031e-01
v_n_sq[3] 9.0260620215414311e-01
v_n_sq[4] 1.1178247774433618e+00
v_n_sq[5] 1.2016786789715042e+00
i_n_r[1] 2.2090588525866752e+00
i_n_r[2] -1.3698485647989218e+00
i_n_r[3] -1.3677716609254529e+00
i_n_r[4] -5.9708774451412894e-01
i_n_r[5] 0.782233708673207
i_n_j[1] 0.62238467639096
i_n_j[2] -1.5291676810965979e-01
i_n_j[3] -2.1417882386971102e-01
i_n_j[4] -1.7435128133074185e-01
i_n_j[5] 7.5996033881866021e-01
i_k_r[1,2] 9.4961031055299072e-01
i_k_r[1,3] 1.2594485420336845e+00
i_k_r[2,3] -1.8556650062637825e-01
i_k_r[2,4] -2.3467175361955289e-01
i_k_r[3,5] -2.9388961951814657e-01
i_k_r[4,5] -6.7514490247558534e-01
i_k_r[2,1] -9.4961031055299072e-01
i_k_r[3,1] -1.2594485420336845e+00
i_k_r[3,2] 1.8556650062637825e-01
i_k_r[4,2] 7.8057157961456458e-02
i_k_r[5,3] 1.0708880619762168e-01
i_k_r[5,4] 6.7514490247558534e-01
i_k_j[1,2] -2.8865928773473826e-02
i_k_j[1,3] 6.5125060516443378e-01
i_k_j[2,3] -3.2074699630955428e-01
i_k_j[2,4] 1.3896429942642063e-01
i_k_j[3,5] 1.1632478038189839e-01
i_k_j[4,5] -4.5822003367901765e-01
i_k_j[2,1] 2.8865928773473826e-02
i_k_j[3,1] -6.5125060516443378e-01
i_k_j[3,2] 3.2074700091282438e-01
i_k_j[4,2] 2.8386875234827580e-01
i_k_j[5,3] 3.0174030513964256e-01
i_k_j[5,4] 4.5822003367901765e-01
i_k_sq[1,2] 9.0259298375250230e-01
i_k_sq[1,3] 2.0103379807578134e+00
i_k_sq[2,3] 1.3731356179632084e-01
i_k_sq[2,4] 7.4381908461952029e-02
i_k_sq[3,5] 9.9902562991417532e-02
i_k_sq[4,5] 6.6578623860356756e-01
i_k_sq[2,1] 9.0259298375250230e-01
i_k_sq[3,1] 2.0103379807578134e+00
i_k_sq[3,2] 0.137313564749291
i_k_sq[4,2] 0.0866743884687865
i_k_sq[5,3] 1.0251522415859637e-01
i_k_sq[5,4] 6.6578623860356756e-01
pn_viol_l[1] 0
pn_viol_l[2] 0
pn_viol_l[3] 0
pn_viol_l[4] 0
pn_viol_l[5] 0
pn_viol_u[1] 0
pn_viol_u[2] 0
pn_viol_u[3] 0
pn_viol_u[4] 0
pn_viol_u[5] 0
qn_viol_l[1] 0
qn_viol_l[2] 0
qn_viol_l[3] 0
qn_viol_l[4] 0
qn_viol_l[5] 0
qn_viol_u[1] 0
qn_viol_u[2] 0
qn_viol_u[3] 0
qn_viol_u[4] 0
qn_viol_u[5] 0
vn_viol_l[1] 0
vn_viol_l[2] 0
vn_viol_l[3] 0
vn_viol_l[4] 0
vn_viol_l[5] 0
vn_viol_u[1] 0
vn_viol_u[2] 0
vn_viol_u[3] 0
vn_viol_u[4] 0
vn_viol_u[5] 0
ik_viol_u[1,2] 0
ik_viol_u[1,3] 0
ik_viol_u[2,3] 0
ik_viol_u[2,4] 0
ik_viol_u[3,5] 0
ik_viol_u[4,5] 0
ik_viol_u[2,1] 0
ik_viol_u[3,1] 0
ik_viol_u[3,2] 0
ik_viol_u[4,2] 0
ik_viol_u[5,3] 0
ik_viol_u[5,4] 0
